Version identifier: 20.1.0.0 | 2020-11-10 | 9bedb6d68
Tried aggregator 2 times.
MIP Presolve eliminated 650 rows and 362 columns.
MIP Presolve modified 1335 coefficients.
Aggregator did 89 substitutions.
Reduced MIP has 542 rows, 456 columns, and 1728 nonzeros.
Reduced MIP has 128 binaries, 328 generals, 0 SOSs, and 0 indicators.
Presolve time = 0.01 sec. (2.78 ticks)
Found incumbent of value 30.000000 after 0.01 sec. (4.81 ticks)
Probing fixed 15 vars, tightened 135 bounds.
Probing time = 0.00 sec. (0.39 ticks)
Tried aggregator 2 times.
Detecting symmetries...
MIP Presolve eliminated 225 rows and 19 columns.
MIP Presolve modified 44 coefficients.
Aggregator did 3 substitutions.
Reduced MIP has 314 rows, 434 columns, and 1029 nonzeros.
Reduced MIP has 160 binaries, 274 generals, 0 SOSs, and 0 indicators.
Presolve time = 0.00 sec. (1.42 ticks)
Probing time = 0.00 sec. (0.08 ticks)
Clique table members: 1.
MIP emphasis: balance optimality and feasibility.
MIP search method: dynamic search.
Parallel mode: deterministic, using up to 24 threads.
Root relaxation solution time = 0.00 sec. (0.82 ticks)

        Nodes                                         Cuts/
   Node  Left     Objective  IInf  Best Integer    Best Bound    ItCnt     Gap

*     0+    0                           30.0000        0.0000           100.00%
      0     0        0.0000    27       30.0000        0.0000      108  100.00%
*     0+    0                           18.0000        0.0000           100.00%
      0     0        1.5556    98       18.0000      Cuts: 68      187   91.36%
      0     0        2.5000    75       18.0000      Cuts: 54      245   86.11%
*     0+    0                           17.0000        2.5000            85.29%
      0     0        3.0000   103       17.0000      Cuts: 56      289   82.35%
      0     0        3.0000   102       17.0000      Cuts: 27      328   82.35%
      0     0        3.0000    42       17.0000       Cuts: 9      342   82.35%
      0     0        3.0000   111       17.0000      Cuts: 37      395   82.35%
*     0+    0                           12.0000        3.0000            75.00%
      0     0        cutoff             12.0000       12.0000      395    0.00%
Elapsed time = 0.44 sec. (46.24 ticks, tree = 0.01 MB, solutions = 4)

Implied bound cuts applied:  14
Mixed integer rounding cuts applied:  9
Zero-half cuts applied:  31
Lift and project cuts applied:  3
Gomory fractional cuts applied:  6

Root node processing (before b&c):
  Real time             =    0.44 sec. (46.29 ticks)
Parallel b&c, 24 threads:
  Real time             =    0.00 sec. (0.00 ticks)
  Sync time (average)   =    0.00 sec.
  Wait time (average)   =    0.00 sec.
                          ------------
Total (root+branch&cut) =    0.44 sec. (46.29 ticks)

Solution status = Optimal
Solution LB = 12
Solution UB = 12
Runtime = 0.446965 seconds
	Command being timed: "/home/min/git_repos/CS598MEBProject/CNT-ILP/build/cnt -s 2 ./output/k6_n15/simC_c1_k6_n15_u2_s3_del04.input-right.cnp"
	User time (seconds): 7.34
	System time (seconds): 0.02
	Percent of CPU this job got: 1602%
	Elapsed (wall clock) time (h:mm:ss or m:ss): 0:00.46
	Average shared text size (kbytes): 0
	Average unshared data size (kbytes): 0
	Average stack size (kbytes): 0
	Average total size (kbytes): 0
	Maximum resident set size (kbytes): 49212
	Average resident set size (kbytes): 0
	Major (requiring I/O) page faults: 0
	Minor (reclaiming a frame) page faults: 9408
	Voluntary context switches: 1754
	Involuntary context switches: 1130
	Swaps: 0
	File system inputs: 0
	File system outputs: 16
	Socket messages sent: 0
	Socket messages received: 0
	Signals delivered: 0
	Page size (bytes): 4096
	Exit status: 0
